; benchmark generated from python API
(set-info :status unknown)
(declare-fun x_months () Int)
(declare-fun x_beta () Int)
(assert
 (<= (- 1202) x_months))
(assert
 (>= 1209 x_months))
(assert
 (let ((?x2490 (mod x_months 48)))
 (let ((?x13 ((as const (Array Int Int)) 0)))
 (let ((?x15 (store ?x13 0 31)))
 (let ((?x18 (store ?x15 1 30)))
 (let ((?x20 (store ?x18 2 31)))
 (let ((?x22 (store ?x20 3 30)))
 (let ((?x24 (store ?x22 4 31)))
 (let ((?x26 (store ?x24 5 31)))
 (let ((?x28 (store ?x26 6 30)))
 (let ((?x30 (store ?x28 7 31)))
 (let ((?x32 (store ?x30 8 30)))
 (let ((?x34 (store ?x32 9 31)))
 (let ((?x36 (store ?x34 10 31)))
 (let ((?x39 (store ?x36 11 28)))
 (let ((?x41 (store ?x39 12 31)))
 (let ((?x43 (store ?x41 13 30)))
 (let ((?x45 (store ?x43 14 31)))
 (let ((?x47 (store ?x45 15 30)))
 (let ((?x49 (store ?x47 16 31)))
 (let ((?x51 (store ?x49 17 31)))
 (let ((?x53 (store ?x51 18 30)))
 (let ((?x55 (store ?x53 19 31)))
 (let ((?x57 (store ?x55 20 30)))
 (let ((?x59 (store ?x57 21 31)))
 (let ((?x61 (store ?x59 22 31)))
 (let ((?x63 (store ?x61 23 28)))
 (let ((?x65 (store ?x63 24 31)))
 (let ((?x67 (store ?x65 25 30)))
 (let ((?x69 (store ?x67 26 31)))
 (let ((?x71 (store ?x69 27 30)))
 (let ((?x72 (store ?x71 28 31)))
 (let ((?x74 (store ?x72 29 31)))
 (let ((?x75 (store ?x74 30 30)))
 (let ((?x76 (store ?x75 31 31)))
 (let ((?x78 (store ?x76 32 30)))
 (let ((?x80 (store ?x78 33 31)))
 (let ((?x82 (store ?x80 34 31)))
 (let ((?x84 (store ?x82 35 28)))
 (let ((?x86 (store ?x84 36 31)))
 (let ((?x88 (store ?x86 37 30)))
 (let ((?x90 (store ?x88 38 31)))
 (let ((?x92 (store ?x90 39 30)))
 (let ((?x94 (store ?x92 40 31)))
 (let ((?x96 (store ?x94 41 31)))
 (let ((?x98 (store ?x96 42 30)))
 (let ((?x100 (store ?x98 43 31)))
 (let ((?x102 (store ?x100 44 30)))
 (let ((?x104 (store ?x102 45 31)))
 (let ((?x106 (store ?x104 46 31)))
 (let ((?x108 (store ?x106 47 29)))
 (let ((?x1278 (select ?x108 ?x2490)))
 (let ((?x1134 (ite (or (= 22802 (+ x_months 24003)) (= 25202 (+ x_months 24003))) 28 ?x1278)))
 (let (($x856 (<= 0 x_beta)))
 (and $x856 (< x_beta ?x1134))))))))))))))))))))))))))))))))))))))))))))))))))))))))
(assert
 (let (($x856 (<= 0 x_beta)))
 (or (> x_months (- (+ (* 2019 12) 12) 24003)) (and (= x_months (- (+ (* 2019 12) 12) 24003)) $x856))))
(assert
 (let ((?x1405 (- (+ (* 2020 12) 2) 24003)))
 (let (($x1555 (= x_months ?x1405)))
 (or (< x_months ?x1405) (and $x1555 (>= 28 x_beta))))))
(assert
 (let ((?x2527 (+ x_months 0)))
 (let ((?x2987 (mod ?x2527 48)))
 (let ((?x657 (ite (> 22803 (+ ?x2527 24003)) 1 (ite (<= 25203 (+ ?x2527 24003)) (- 1) 0))))
 (let ((?x13 ((as const (Array Int Int)) 0)))
 (let ((?x15 (store ?x13 0 31)))
 (let ((?x18 (store ?x15 1 30)))
 (let ((?x20 (store ?x18 2 31)))
 (let ((?x22 (store ?x20 3 30)))
 (let ((?x24 (store ?x22 4 31)))
 (let ((?x26 (store ?x24 5 31)))
 (let ((?x28 (store ?x26 6 30)))
 (let ((?x30 (store ?x28 7 31)))
 (let ((?x32 (store ?x30 8 30)))
 (let ((?x34 (store ?x32 9 31)))
 (let ((?x36 (store ?x34 10 31)))
 (let ((?x39 (store ?x36 11 28)))
 (let ((?x41 (store ?x39 12 31)))
 (let ((?x43 (store ?x41 13 30)))
 (let ((?x45 (store ?x43 14 31)))
 (let ((?x47 (store ?x45 15 30)))
 (let ((?x49 (store ?x47 16 31)))
 (let ((?x51 (store ?x49 17 31)))
 (let ((?x53 (store ?x51 18 30)))
 (let ((?x55 (store ?x53 19 31)))
 (let ((?x57 (store ?x55 20 30)))
 (let ((?x59 (store ?x57 21 31)))
 (let ((?x61 (store ?x59 22 31)))
 (let ((?x63 (store ?x61 23 28)))
 (let ((?x65 (store ?x63 24 31)))
 (let ((?x67 (store ?x65 25 30)))
 (let ((?x69 (store ?x67 26 31)))
 (let ((?x71 (store ?x69 27 30)))
 (let ((?x72 (store ?x71 28 31)))
 (let ((?x74 (store ?x72 29 31)))
 (let ((?x75 (store ?x74 30 30)))
 (let ((?x76 (store ?x75 31 31)))
 (let ((?x78 (store ?x76 32 30)))
 (let ((?x80 (store ?x78 33 31)))
 (let ((?x82 (store ?x80 34 31)))
 (let ((?x84 (store ?x82 35 28)))
 (let ((?x86 (store ?x84 36 31)))
 (let ((?x88 (store ?x86 37 30)))
 (let ((?x90 (store ?x88 38 31)))
 (let ((?x92 (store ?x90 39 30)))
 (let ((?x94 (store ?x92 40 31)))
 (let ((?x96 (store ?x94 41 31)))
 (let ((?x98 (store ?x96 42 30)))
 (let ((?x100 (store ?x98 43 31)))
 (let ((?x102 (store ?x100 44 30)))
 (let ((?x104 (store ?x102 45 31)))
 (let ((?x106 (store ?x104 46 31)))
 (let ((?x108 (store ?x106 47 29)))
 (let ((?x2981 (ite (or (= 22802 (+ ?x2527 24003)) (= 25202 (+ ?x2527 24003))) 28 (select ?x108 ?x2987))))
 (let ((?x2982 (- ?x2981 1)))
 (let (($x1293 (> 0 x_beta)))
 (let ((?x114 (store (store (store (store ?x13 0 0) 1 31) 2 61) 3 92)))
 (let ((?x122 (store (store (store (store ?x114 4 122) 5 153) 6 184) 7 214)))
 (let ((?x130 (store (store (store (store ?x122 8 245) 9 275) 10 306) 11 337)))
 (let ((?x138 (store (store (store (store ?x130 12 365) 13 396) 14 426) 15 457)))
 (let ((?x146 (store (store (store (store ?x138 16 487) 17 518) 18 549) 19 579)))
 (let ((?x154 (store (store (store (store ?x146 20 610) 21 640) 22 671) 23 702)))
 (let ((?x162 (store (store (store (store ?x154 24 730) 25 761) 26 791) 27 822)))
 (let ((?x170 (store (store (store (store ?x162 28 852) 29 883) 30 914) 31 944)))
 (let ((?x178 (store (store (store (store ?x170 32 975) 33 1005) 34 1036) 35 1067)))
 (let ((?x186 (store (store (store (store ?x178 36 1095) 37 1126) 38 1156) 39 1187)))
 (let ((?x194 (store (store (store (store ?x186 40 1217) 41 1248) 42 1279) 43 1309)))
 (let ((?x202 (store (store (store (store ?x194 44 1340) 45 1370) 46 1401) 47 1432)))
 (let ((?x2831 (+ (select ?x202 ?x2987) (ite $x1293 0 (ite (> x_beta ?x2982) ?x2982 x_beta)))))
 (let ((?x655 (+ (+ ?x2831 ?x657) 366)))
 (let ((?x417 (+ ?x2527 (* (div ?x655 1461) 48))))
 (let ((?x274 (+ (+ ?x417 (- 1 ?x2987)) 24003)))
 (let ((?x1155 (select ?x202 1)))
 (let ((?x405 (mod ?x655 1461)))
 (let (($x2769 (>= ?x405 (+ ?x1155 (ite (> 22803 ?x274) 1 (ite (<= 25203 ?x274) (- 1) 0))))))
 (let ((?x2950 (ite (> 22803 (+ (+ ?x417 (- 2 ?x2987)) 24003)) 1 (ite (<= 25203 (+ (+ ?x417 (- 2 ?x2987)) 24003)) (- 1) 0))))
 (let ((?x951 (select ?x202 2)))
 (let ((?x2930 (ite (> 22803 (+ (+ ?x417 (- 3 ?x2987)) 24003)) 1 (ite (<= 25203 (+ (+ ?x417 (- 3 ?x2987)) 24003)) (- 1) 0))))
 (let ((?x468 (select ?x202 3)))
 (let ((?x2841 (ite (>= ?x405 (+ ?x468 ?x2930)) 3 (ite (>= ?x405 (+ ?x951 ?x2950)) 2 (ite $x2769 1 0)))))
 (let ((?x2920 (ite (> 22803 (+ (+ ?x417 (- 4 ?x2987)) 24003)) 1 (ite (<= 25203 (+ (+ ?x417 (- 4 ?x2987)) 24003)) (- 1) 0))))
 (let ((?x1355 (select ?x202 4)))
 (let ((?x2870 (ite (> 22803 (+ (+ ?x417 (- 5 ?x2987)) 24003)) 1 (ite (<= 25203 (+ (+ ?x417 (- 5 ?x2987)) 24003)) (- 1) 0))))
 (let ((?x1644 (select ?x202 5)))
 (let ((?x2787 (ite (>= ?x405 (+ ?x1644 ?x2870)) 5 (ite (>= ?x405 (+ ?x1355 ?x2920)) 4 ?x2841))))
 (let ((?x2794 (ite (> 22803 (+ (+ ?x417 (- 6 ?x2987)) 24003)) 1 (ite (<= 25203 (+ (+ ?x417 (- 6 ?x2987)) 24003)) (- 1) 0))))
 (let ((?x757 (select ?x202 6)))
 (let ((?x2847 (ite (> 22803 (+ (+ ?x417 (- 7 ?x2987)) 24003)) 1 (ite (<= 25203 (+ (+ ?x417 (- 7 ?x2987)) 24003)) (- 1) 0))))
 (let ((?x681 (select ?x202 7)))
 (let ((?x3026 (ite (>= ?x405 (+ ?x681 ?x2847)) 7 (ite (>= ?x405 (+ ?x757 ?x2794)) 6 ?x2787))))
 (let ((?x2606 (ite (> 22803 (+ (+ ?x417 (- 8 ?x2987)) 24003)) 1 (ite (<= 25203 (+ (+ ?x417 (- 8 ?x2987)) 24003)) (- 1) 0))))
 (let ((?x1578 (select ?x202 8)))
 (let ((?x2351 (ite (> 22803 (+ (+ ?x417 (- 9 ?x2987)) 24003)) 1 (ite (<= 25203 (+ (+ ?x417 (- 9 ?x2987)) 24003)) (- 1) 0))))
 (let ((?x1281 (select ?x202 9)))
 (let ((?x2707 (ite (>= ?x405 (+ ?x1281 ?x2351)) 9 (ite (>= ?x405 (+ ?x1578 ?x2606)) 8 ?x3026))))
 (let ((?x2722 (ite (> 22803 (+ (+ ?x417 (- 10 ?x2987)) 24003)) 1 (ite (<= 25203 (+ (+ ?x417 (- 10 ?x2987)) 24003)) (- 1) 0))))
 (let ((?x1978 (select ?x202 10)))
 (let ((?x2954 (ite (> 22803 (+ (+ ?x417 (- 11 ?x2987)) 24003)) 1 (ite (<= 25203 (+ (+ ?x417 (- 11 ?x2987)) 24003)) (- 1) 0))))
 (let ((?x2382 (select ?x202 11)))
 (let ((?x2793 (ite (>= ?x405 (+ ?x2382 ?x2954)) 11 (ite (>= ?x405 (+ ?x1978 ?x2722)) 10 ?x2707))))
 (let ((?x2974 (ite (> 22803 (+ (+ ?x417 (- 12 ?x2987)) 24003)) 1 (ite (<= 25203 (+ (+ ?x417 (- 12 ?x2987)) 24003)) (- 1) 0))))
 (let ((?x2945 (select ?x202 12)))
 (let ((?x2625 (ite (> 22803 (+ (+ ?x417 (- 13 ?x2987)) 24003)) 1 (ite (<= 25203 (+ (+ ?x417 (- 13 ?x2987)) 24003)) (- 1) 0))))
 (let ((?x2650 (select ?x202 13)))
 (let ((?x2963 (ite (>= ?x405 (+ ?x2650 ?x2625)) 13 (ite (>= ?x405 (+ ?x2945 ?x2974)) 12 ?x2793))))
 (let ((?x2691 (ite (> 22803 (+ (+ ?x417 (- 14 ?x2987)) 24003)) 1 (ite (<= 25203 (+ (+ ?x417 (- 14 ?x2987)) 24003)) (- 1) 0))))
 (let ((?x2340 (select ?x202 14)))
 (let ((?x3052 (ite (> 22803 (+ (+ ?x417 (- 15 ?x2987)) 24003)) 1 (ite (<= 25203 (+ (+ ?x417 (- 15 ?x2987)) 24003)) (- 1) 0))))
 (let ((?x2033 (select ?x202 15)))
 (let ((?x3059 (ite (>= ?x405 (+ ?x2033 ?x3052)) 15 (ite (>= ?x405 (+ ?x2340 ?x2691)) 14 ?x2963))))
 (let ((?x3082 (ite (> 22803 (+ (+ ?x417 (- 16 ?x2987)) 24003)) 1 (ite (<= 25203 (+ (+ ?x417 (- 16 ?x2987)) 24003)) (- 1) 0))))
 (let ((?x2681 (select ?x202 16)))
 (let ((?x3110 (ite (> 22803 (+ (+ ?x417 (- 17 ?x2987)) 24003)) 1 (ite (<= 25203 (+ (+ ?x417 (- 17 ?x2987)) 24003)) (- 1) 0))))
 (let ((?x2240 (select ?x202 17)))
 (let ((?x3117 (ite (>= ?x405 (+ ?x2240 ?x3110)) 17 (ite (>= ?x405 (+ ?x2681 ?x3082)) 16 ?x3059))))
 (let ((?x3141 (ite (> 22803 (+ (+ ?x417 (- 18 ?x2987)) 24003)) 1 (ite (<= 25203 (+ (+ ?x417 (- 18 ?x2987)) 24003)) (- 1) 0))))
 (let ((?x3099 (select ?x202 18)))
 (let ((?x3170 (ite (> 22803 (+ (+ ?x417 (- 19 ?x2987)) 24003)) 1 (ite (<= 25203 (+ (+ ?x417 (- 19 ?x2987)) 24003)) (- 1) 0))))
 (let ((?x2767 (select ?x202 19)))
 (let ((?x3184 (ite (>= ?x405 (+ ?x2767 ?x3170)) 19 (ite (>= ?x405 (+ ?x3099 ?x3141)) 18 ?x3117))))
 (let ((?x3196 (ite (> 22803 (+ (+ ?x417 (- 20 ?x2987)) 24003)) 1 (ite (<= 25203 (+ (+ ?x417 (- 20 ?x2987)) 24003)) (- 1) 0))))
 (let ((?x2843 (select ?x202 20)))
 (let ((?x3241 (ite (> 22803 (+ (+ ?x417 (- 21 ?x2987)) 24003)) 1 (ite (<= 25203 (+ (+ ?x417 (- 21 ?x2987)) 24003)) (- 1) 0))))
 (let ((?x299 (select ?x202 21)))
 (let ((?x3237 (ite (>= ?x405 (+ ?x299 ?x3241)) 21 (ite (>= ?x405 (+ ?x2843 ?x3196)) 20 ?x3184))))
 (let ((?x3265 (ite (> 22803 (+ (+ ?x417 (- 22 ?x2987)) 24003)) 1 (ite (<= 25203 (+ (+ ?x417 (- 22 ?x2987)) 24003)) (- 1) 0))))
 (let ((?x1126 (select ?x202 22)))
 (let ((?x3299 (ite (> 22803 (+ (+ ?x417 (- 23 ?x2987)) 24003)) 1 (ite (<= 25203 (+ (+ ?x417 (- 23 ?x2987)) 24003)) (- 1) 0))))
 (let ((?x827 (select ?x202 23)))
 (let ((?x3297 (ite (>= ?x405 (+ ?x827 ?x3299)) 23 (ite (>= ?x405 (+ ?x1126 ?x3265)) 22 ?x3237))))
 (let ((?x3316 (ite (> 22803 (+ (+ ?x417 (- 24 ?x2987)) 24003)) 1 (ite (<= 25203 (+ (+ ?x417 (- 24 ?x2987)) 24003)) (- 1) 0))))
 (let ((?x2163 (select ?x202 24)))
 (let ((?x3340 (ite (> 22803 (+ (+ ?x417 (- 25 ?x2987)) 24003)) 1 (ite (<= 25203 (+ (+ ?x417 (- 25 ?x2987)) 24003)) (- 1) 0))))
 (let ((?x854 (select ?x202 25)))
 (let ((?x3347 (ite (>= ?x405 (+ ?x854 ?x3340)) 25 (ite (>= ?x405 (+ ?x2163 ?x3316)) 24 ?x3297))))
 (let ((?x3356 (ite (> 22803 (+ (+ ?x417 (- 26 ?x2987)) 24003)) 1 (ite (<= 25203 (+ (+ ?x417 (- 26 ?x2987)) 24003)) (- 1) 0))))
 (let ((?x2369 (select ?x202 26)))
 (let ((?x3372 (ite (> 22803 (+ (+ ?x417 (- 27 ?x2987)) 24003)) 1 (ite (<= 25203 (+ (+ ?x417 (- 27 ?x2987)) 24003)) (- 1) 0))))
 (let ((?x2414 (select ?x202 27)))
 (let ((?x3380 (ite (>= ?x405 (+ ?x2414 ?x3372)) 27 (ite (>= ?x405 (+ ?x2369 ?x3356)) 26 ?x3347))))
 (let ((?x3234 (ite (> 22803 (+ (+ ?x417 (- 28 ?x2987)) 24003)) 1 (ite (<= 25203 (+ (+ ?x417 (- 28 ?x2987)) 24003)) (- 1) 0))))
 (let ((?x1954 (select ?x202 28)))
 (let ((?x2034 (ite (> 22803 (+ (+ ?x417 (- 29 ?x2987)) 24003)) 1 (ite (<= 25203 (+ (+ ?x417 (- 29 ?x2987)) 24003)) (- 1) 0))))
 (let ((?x1088 (select ?x202 29)))
 (let ((?x2802 (ite (>= ?x405 (+ ?x1088 ?x2034)) 29 (ite (>= ?x405 (+ ?x1954 ?x3234)) 28 ?x3380))))
 (let ((?x2274 (ite (> 22803 (+ (+ ?x417 (- 30 ?x2987)) 24003)) 1 (ite (<= 25203 (+ (+ ?x417 (- 30 ?x2987)) 24003)) (- 1) 0))))
 (let ((?x2356 (select ?x202 30)))
 (let ((?x2063 (ite (> 22803 (+ (+ ?x417 (- 31 ?x2987)) 24003)) 1 (ite (<= 25203 (+ (+ ?x417 (- 31 ?x2987)) 24003)) (- 1) 0))))
 (let ((?x1284 (select ?x202 31)))
 (let ((?x2066 (ite (>= ?x405 (+ ?x1284 ?x2063)) 31 (ite (>= ?x405 (+ ?x2356 ?x2274)) 30 ?x2802))))
 (let ((?x2557 (ite (> 22803 (+ (+ ?x417 (- 32 ?x2987)) 24003)) 1 (ite (<= 25203 (+ (+ ?x417 (- 32 ?x2987)) 24003)) (- 1) 0))))
 (let ((?x1162 (select ?x202 32)))
 (let ((?x2988 (ite (> 22803 (+ (+ ?x417 (- 33 ?x2987)) 24003)) 1 (ite (<= 25203 (+ (+ ?x417 (- 33 ?x2987)) 24003)) (- 1) 0))))
 (let ((?x1806 (select ?x202 33)))
 (let ((?x280 (ite (>= ?x405 (+ ?x1806 ?x2988)) 33 (ite (>= ?x405 (+ ?x1162 ?x2557)) 32 ?x2066))))
 (let ((?x2825 (ite (> 22803 (+ (+ ?x417 (- 34 ?x2987)) 24003)) 1 (ite (<= 25203 (+ (+ ?x417 (- 34 ?x2987)) 24003)) (- 1) 0))))
 (let ((?x2260 (select ?x202 34)))
 (let ((?x3400 (ite (> 22803 (+ (+ ?x417 (- 35 ?x2987)) 24003)) 1 (ite (<= 25203 (+ (+ ?x417 (- 35 ?x2987)) 24003)) (- 1) 0))))
 (let ((?x2451 (select ?x202 35)))
 (let ((?x3192 (ite (>= ?x405 (+ ?x2451 ?x3400)) 35 (ite (>= ?x405 (+ ?x2260 ?x2825)) 34 ?x280))))
 (let ((?x1517 (ite (> 22803 (+ (+ ?x417 (- 36 ?x2987)) 24003)) 1 (ite (<= 25203 (+ (+ ?x417 (- 36 ?x2987)) 24003)) (- 1) 0))))
 (let ((?x2370 (select ?x202 36)))
 (let ((?x379 (ite (> 22803 (+ (+ ?x417 (- 37 ?x2987)) 24003)) 1 (ite (<= 25203 (+ (+ ?x417 (- 37 ?x2987)) 24003)) (- 1) 0))))
 (let ((?x1622 (select ?x202 37)))
 (let ((?x323 (ite (>= ?x405 (+ ?x1622 ?x379)) 37 (ite (>= ?x405 (+ ?x2370 ?x1517)) 36 ?x3192))))
 (let ((?x693 (ite (> 22803 (+ (+ ?x417 (- 38 ?x2987)) 24003)) 1 (ite (<= 25203 (+ (+ ?x417 (- 38 ?x2987)) 24003)) (- 1) 0))))
 (let ((?x2684 (select ?x202 38)))
 (let ((?x2764 (ite (> 22803 (+ (+ ?x417 (- 39 ?x2987)) 24003)) 1 (ite (<= 25203 (+ (+ ?x417 (- 39 ?x2987)) 24003)) (- 1) 0))))
 (let ((?x1191 (select ?x202 39)))
 (let ((?x2933 (ite (>= ?x405 (+ ?x1191 ?x2764)) 39 (ite (>= ?x405 (+ ?x2684 ?x693)) 38 ?x323))))
 (let ((?x351 (ite (> 22803 (+ (+ ?x417 (- 40 ?x2987)) 24003)) 1 (ite (<= 25203 (+ (+ ?x417 (- 40 ?x2987)) 24003)) (- 1) 0))))
 (let ((?x2352 (select ?x202 40)))
 (let ((?x2875 (ite (> 22803 (+ (+ ?x417 (- 41 ?x2987)) 24003)) 1 (ite (<= 25203 (+ (+ ?x417 (- 41 ?x2987)) 24003)) (- 1) 0))))
 (let ((?x1095 (select ?x202 41)))
 (let ((?x1753 (ite (>= ?x405 (+ ?x1095 ?x2875)) 41 (ite (>= ?x405 (+ ?x2352 ?x351)) 40 ?x2933))))
 (let ((?x3300 (ite (> 22803 (+ (+ ?x417 (- 42 ?x2987)) 24003)) 1 (ite (<= 25203 (+ (+ ?x417 (- 42 ?x2987)) 24003)) (- 1) 0))))
 (let ((?x1447 (select ?x202 42)))
 (let ((?x2215 (ite (> 22803 (+ (+ ?x417 (- 43 ?x2987)) 24003)) 1 (ite (<= 25203 (+ (+ ?x417 (- 43 ?x2987)) 24003)) (- 1) 0))))
 (let ((?x1820 (select ?x202 43)))
 (let ((?x2216 (ite (>= ?x405 (+ ?x1820 ?x2215)) 43 (ite (>= ?x405 (+ ?x1447 ?x3300)) 42 ?x1753))))
 (let ((?x1771 (ite (> 22803 (+ (+ ?x417 (- 44 ?x2987)) 24003)) 1 (ite (<= 25203 (+ (+ ?x417 (- 44 ?x2987)) 24003)) (- 1) 0))))
 (let ((?x2556 (select ?x202 44)))
 (let ((?x618 (ite (> 22803 (+ (+ ?x417 (- 45 ?x2987)) 24003)) 1 (ite (<= 25203 (+ (+ ?x417 (- 45 ?x2987)) 24003)) (- 1) 0))))
 (let ((?x2581 (select ?x202 45)))
 (let ((?x1957 (ite (>= ?x405 (+ ?x2581 ?x618)) 45 (ite (>= ?x405 (+ ?x2556 ?x1771)) 44 ?x2216))))
 (let ((?x338 (ite (> 22803 (+ (+ ?x417 (- 46 ?x2987)) 24003)) 1 (ite (<= 25203 (+ (+ ?x417 (- 46 ?x2987)) 24003)) (- 1) 0))))
 (let ((?x2509 (select ?x202 46)))
 (let ((?x375 (ite (> 22803 (+ (+ ?x417 (- 47 ?x2987)) 24003)) 1 (ite (<= 25203 (+ (+ ?x417 (- 47 ?x2987)) 24003)) (- 1) 0))))
 (let ((?x2663 (select ?x202 47)))
 (let ((?x2856 (ite (>= ?x405 (+ ?x2663 ?x375)) 47 (ite (>= ?x405 (+ ?x2509 ?x338)) 46 ?x1957))))
 (let ((?x1835 (+ ?x417 (- ?x2856 ?x2987))))
 (let ((?x1834 (+ ?x1835 24003)))
 (let ((?x3318 (+ (select ?x202 ?x2856) (ite (> 22803 ?x1834) 1 (ite (<= 25203 ?x1834) (- 1) 0)))))
 (let ((?x2820 (- ?x405 ?x3318)))
 (let ((?x3067 (ite (or (= 22802 ?x1834) (= 25202 ?x1834)) 28 (select ?x108 ?x2856))))
 (let ((?x1457 (+ x_months 12)))
 (let ((?x1633 (mod ?x1457 48)))
 (let ((?x840 (ite (> 22803 (+ ?x1457 24003)) 1 (ite (<= 25203 (+ ?x1457 24003)) (- 1) 0))))
 (let ((?x908 (ite (or (= 22802 (+ ?x1457 24003)) (= 25202 (+ ?x1457 24003))) 28 (select ?x108 ?x1633))))
 (let ((?x1282 (- ?x908 1)))
 (let ((?x1635 (+ (select ?x202 ?x1633) (ite $x1293 0 (ite (> x_beta ?x1282) ?x1282 x_beta)))))
 (let ((?x930 (+ (+ ?x1635 ?x840) 0)))
 (let ((?x952 (+ ?x1457 (* (div ?x930 1461) 48))))
 (let ((?x226 (+ (+ ?x952 (- 1 ?x1633)) 24003)))
 (let ((?x941 (mod ?x930 1461)))
 (let (($x1489 (>= ?x941 (+ ?x1155 (ite (> 22803 ?x226) 1 (ite (<= 25203 ?x226) (- 1) 0))))))
 (let ((?x1141 (ite (> 22803 (+ (+ ?x952 (- 2 ?x1633)) 24003)) 1 (ite (<= 25203 (+ (+ ?x952 (- 2 ?x1633)) 24003)) (- 1) 0))))
 (let ((?x1055 (ite (> 22803 (+ (+ ?x952 (- 3 ?x1633)) 24003)) 1 (ite (<= 25203 (+ (+ ?x952 (- 3 ?x1633)) 24003)) (- 1) 0))))
 (let ((?x1530 (ite (>= ?x941 (+ ?x468 ?x1055)) 3 (ite (>= ?x941 (+ ?x951 ?x1141)) 2 (ite $x1489 1 0)))))
 (let ((?x1325 (ite (> 22803 (+ (+ ?x952 (- 4 ?x1633)) 24003)) 1 (ite (<= 25203 (+ (+ ?x952 (- 4 ?x1633)) 24003)) (- 1) 0))))
 (let ((?x447 (ite (> 22803 (+ (+ ?x952 (- 5 ?x1633)) 24003)) 1 (ite (<= 25203 (+ (+ ?x952 (- 5 ?x1633)) 24003)) (- 1) 0))))
 (let ((?x887 (ite (>= ?x941 (+ ?x1644 ?x447)) 5 (ite (>= ?x941 (+ ?x1355 ?x1325)) 4 ?x1530))))
 (let ((?x549 (ite (> 22803 (+ (+ ?x952 (- 6 ?x1633)) 24003)) 1 (ite (<= 25203 (+ (+ ?x952 (- 6 ?x1633)) 24003)) (- 1) 0))))
 (let ((?x1359 (ite (> 22803 (+ (+ ?x952 (- 7 ?x1633)) 24003)) 1 (ite (<= 25203 (+ (+ ?x952 (- 7 ?x1633)) 24003)) (- 1) 0))))
 (let ((?x2107 (ite (>= ?x941 (+ ?x681 ?x1359)) 7 (ite (>= ?x941 (+ ?x757 ?x549)) 6 ?x887))))
 (let ((?x1623 (ite (> 22803 (+ (+ ?x952 (- 8 ?x1633)) 24003)) 1 (ite (<= 25203 (+ (+ ?x952 (- 8 ?x1633)) 24003)) (- 1) 0))))
 (let ((?x1266 (ite (> 22803 (+ (+ ?x952 (- 9 ?x1633)) 24003)) 1 (ite (<= 25203 (+ (+ ?x952 (- 9 ?x1633)) 24003)) (- 1) 0))))
 (let ((?x1156 (ite (>= ?x941 (+ ?x1281 ?x1266)) 9 (ite (>= ?x941 (+ ?x1578 ?x1623)) 8 ?x2107))))
 (let ((?x1973 (ite (> 22803 (+ (+ ?x952 (- 10 ?x1633)) 24003)) 1 (ite (<= 25203 (+ (+ ?x952 (- 10 ?x1633)) 24003)) (- 1) 0))))
 (let ((?x1729 (ite (> 22803 (+ (+ ?x952 (- 11 ?x1633)) 24003)) 1 (ite (<= 25203 (+ (+ ?x952 (- 11 ?x1633)) 24003)) (- 1) 0))))
 (let ((?x2378 (ite (>= ?x941 (+ ?x2382 ?x1729)) 11 (ite (>= ?x941 (+ ?x1978 ?x1973)) 10 ?x1156))))
 (let ((?x2213 (ite (> 22803 (+ (+ ?x952 (- 12 ?x1633)) 24003)) 1 (ite (<= 25203 (+ (+ ?x952 (- 12 ?x1633)) 24003)) (- 1) 0))))
 (let ((?x3108 (ite (> 22803 (+ (+ ?x952 (- 13 ?x1633)) 24003)) 1 (ite (<= 25203 (+ (+ ?x952 (- 13 ?x1633)) 24003)) (- 1) 0))))
 (let ((?x2651 (ite (>= ?x941 (+ ?x2650 ?x3108)) 13 (ite (>= ?x941 (+ ?x2945 ?x2213)) 12 ?x2378))))
 (let ((?x2147 (ite (> 22803 (+ (+ ?x952 (- 14 ?x1633)) 24003)) 1 (ite (<= 25203 (+ (+ ?x952 (- 14 ?x1633)) 24003)) (- 1) 0))))
 (let ((?x2027 (ite (> 22803 (+ (+ ?x952 (- 15 ?x1633)) 24003)) 1 (ite (<= 25203 (+ (+ ?x952 (- 15 ?x1633)) 24003)) (- 1) 0))))
 (let ((?x2391 (ite (>= ?x941 (+ ?x2033 ?x2027)) 15 (ite (>= ?x941 (+ ?x2340 ?x2147)) 14 ?x2651))))
 (let ((?x2680 (ite (> 22803 (+ (+ ?x952 (- 16 ?x1633)) 24003)) 1 (ite (<= 25203 (+ (+ ?x952 (- 16 ?x1633)) 24003)) (- 1) 0))))
 (let ((?x2241 (ite (> 22803 (+ (+ ?x952 (- 17 ?x1633)) 24003)) 1 (ite (<= 25203 (+ (+ ?x952 (- 17 ?x1633)) 24003)) (- 1) 0))))
 (let ((?x2148 (ite (>= ?x941 (+ ?x2240 ?x2241)) 17 (ite (>= ?x941 (+ ?x2681 ?x2680)) 16 ?x2391))))
 (let ((?x3097 (ite (> 22803 (+ (+ ?x952 (- 18 ?x1633)) 24003)) 1 (ite (<= 25203 (+ (+ ?x952 (- 18 ?x1633)) 24003)) (- 1) 0))))
 (let ((?x2765 (ite (> 22803 (+ (+ ?x952 (- 19 ?x1633)) 24003)) 1 (ite (<= 25203 (+ (+ ?x952 (- 19 ?x1633)) 24003)) (- 1) 0))))
 (let ((?x3078 (ite (>= ?x941 (+ ?x2767 ?x2765)) 19 (ite (>= ?x941 (+ ?x3099 ?x3097)) 18 ?x2148))))
 (let ((?x909 (ite (> 22803 (+ (+ ?x952 (- 20 ?x1633)) 24003)) 1 (ite (<= 25203 (+ (+ ?x952 (- 20 ?x1633)) 24003)) (- 1) 0))))
 (let ((?x2886 (ite (> 22803 (+ (+ ?x952 (- 21 ?x1633)) 24003)) 1 (ite (<= 25203 (+ (+ ?x952 (- 21 ?x1633)) 24003)) (- 1) 0))))
 (let ((?x1468 (ite (>= ?x941 (+ ?x299 ?x2886)) 21 (ite (>= ?x941 (+ ?x2843 ?x909)) 20 ?x3078))))
 (let ((?x1382 (ite (> 22803 (+ (+ ?x952 (- 22 ?x1633)) 24003)) 1 (ite (<= 25203 (+ (+ ?x952 (- 22 ?x1633)) 24003)) (- 1) 0))))
 (let ((?x815 (ite (> 22803 (+ (+ ?x952 (- 23 ?x1633)) 24003)) 1 (ite (<= 25203 (+ (+ ?x952 (- 23 ?x1633)) 24003)) (- 1) 0))))
 (let ((?x257 (ite (>= ?x941 (+ ?x827 ?x815)) 23 (ite (>= ?x941 (+ ?x1126 ?x1382)) 22 ?x1468))))
 (let ((?x962 (ite (> 22803 (+ (+ ?x952 (- 24 ?x1633)) 24003)) 1 (ite (<= 25203 (+ (+ ?x952 (- 24 ?x1633)) 24003)) (- 1) 0))))
 (let ((?x965 (ite (> 22803 (+ (+ ?x952 (- 25 ?x1633)) 24003)) 1 (ite (<= 25203 (+ (+ ?x952 (- 25 ?x1633)) 24003)) (- 1) 0))))
 (let ((?x2371 (ite (>= ?x941 (+ ?x854 ?x965)) 25 (ite (>= ?x941 (+ ?x2163 ?x962)) 24 ?x257))))
 (let ((?x1421 (ite (> 22803 (+ (+ ?x952 (- 26 ?x1633)) 24003)) 1 (ite (<= 25203 (+ (+ ?x952 (- 26 ?x1633)) 24003)) (- 1) 0))))
 (let ((?x2415 (ite (> 22803 (+ (+ ?x952 (- 27 ?x1633)) 24003)) 1 (ite (<= 25203 (+ (+ ?x952 (- 27 ?x1633)) 24003)) (- 1) 0))))
 (let ((?x1192 (ite (>= ?x941 (+ ?x2414 ?x2415)) 27 (ite (>= ?x941 (+ ?x2369 ?x1421)) 26 ?x2371))))
 (let ((?x3118 (ite (> 22803 (+ (+ ?x952 (- 28 ?x1633)) 24003)) 1 (ite (<= 25203 (+ (+ ?x952 (- 28 ?x1633)) 24003)) (- 1) 0))))
 (let ((?x214 (ite (> 22803 (+ (+ ?x952 (- 29 ?x1633)) 24003)) 1 (ite (<= 25203 (+ (+ ?x952 (- 29 ?x1633)) 24003)) (- 1) 0))))
 (let ((?x872 (ite (>= ?x941 (+ ?x1088 ?x214)) 29 (ite (>= ?x941 (+ ?x1954 ?x3118)) 28 ?x1192))))
 (let ((?x2358 (ite (> 22803 (+ (+ ?x952 (- 30 ?x1633)) 24003)) 1 (ite (<= 25203 (+ (+ ?x952 (- 30 ?x1633)) 24003)) (- 1) 0))))
 (let ((?x278 (ite (> 22803 (+ (+ ?x952 (- 31 ?x1633)) 24003)) 1 (ite (<= 25203 (+ (+ ?x952 (- 31 ?x1633)) 24003)) (- 1) 0))))
 (let ((?x2135 (ite (>= ?x941 (+ ?x1284 ?x278)) 31 (ite (>= ?x941 (+ ?x2356 ?x2358)) 30 ?x872))))
 (let ((?x1135 (ite (> 22803 (+ (+ ?x952 (- 32 ?x1633)) 24003)) 1 (ite (<= 25203 (+ (+ ?x952 (- 32 ?x1633)) 24003)) (- 1) 0))))
 (let ((?x3152 (ite (> 22803 (+ (+ ?x952 (- 33 ?x1633)) 24003)) 1 (ite (<= 25203 (+ (+ ?x952 (- 33 ?x1633)) 24003)) (- 1) 0))))
 (let ((?x1854 (ite (>= ?x941 (+ ?x1806 ?x3152)) 33 (ite (>= ?x941 (+ ?x1162 ?x1135)) 32 ?x2135))))
 (let ((?x2160 (ite (> 22803 (+ (+ ?x952 (- 34 ?x1633)) 24003)) 1 (ite (<= 25203 (+ (+ ?x952 (- 34 ?x1633)) 24003)) (- 1) 0))))
 (let ((?x2450 (ite (> 22803 (+ (+ ?x952 (- 35 ?x1633)) 24003)) 1 (ite (<= 25203 (+ (+ ?x952 (- 35 ?x1633)) 24003)) (- 1) 0))))
 (let ((?x2463 (ite (>= ?x941 (+ ?x2451 ?x2450)) 35 (ite (>= ?x941 (+ ?x2260 ?x2160)) 34 ?x1854))))
 (let ((?x2367 (ite (> 22803 (+ (+ ?x952 (- 36 ?x1633)) 24003)) 1 (ite (<= 25203 (+ (+ ?x952 (- 36 ?x1633)) 24003)) (- 1) 0))))
 (let ((?x1245 (ite (> 22803 (+ (+ ?x952 (- 37 ?x1633)) 24003)) 1 (ite (<= 25203 (+ (+ ?x952 (- 37 ?x1633)) 24003)) (- 1) 0))))
 (let ((?x3174 (ite (>= ?x941 (+ ?x1622 ?x1245)) 37 (ite (>= ?x941 (+ ?x2370 ?x2367)) 36 ?x2463))))
 (let ((?x2686 (ite (> 22803 (+ (+ ?x952 (- 38 ?x1633)) 24003)) 1 (ite (<= 25203 (+ (+ ?x952 (- 38 ?x1633)) 24003)) (- 1) 0))))
 (let ((?x2403 (ite (> 22803 (+ (+ ?x952 (- 39 ?x1633)) 24003)) 1 (ite (<= 25203 (+ (+ ?x952 (- 39 ?x1633)) 24003)) (- 1) 0))))
 (let ((?x1965 (ite (>= ?x941 (+ ?x1191 ?x2403)) 39 (ite (>= ?x941 (+ ?x2684 ?x2686)) 38 ?x3174))))
 (let ((?x2346 (ite (> 22803 (+ (+ ?x952 (- 40 ?x1633)) 24003)) 1 (ite (<= 25203 (+ (+ ?x952 (- 40 ?x1633)) 24003)) (- 1) 0))))
 (let ((?x2152 (ite (> 22803 (+ (+ ?x952 (- 41 ?x1633)) 24003)) 1 (ite (<= 25203 (+ (+ ?x952 (- 41 ?x1633)) 24003)) (- 1) 0))))
 (let ((?x2001 (ite (>= ?x941 (+ ?x1095 ?x2152)) 41 (ite (>= ?x941 (+ ?x2352 ?x2346)) 40 ?x1965))))
 (let ((?x781 (ite (> 22803 (+ (+ ?x952 (- 42 ?x1633)) 24003)) 1 (ite (<= 25203 (+ (+ ?x952 (- 42 ?x1633)) 24003)) (- 1) 0))))
 (let ((?x625 (ite (> 22803 (+ (+ ?x952 (- 43 ?x1633)) 24003)) 1 (ite (<= 25203 (+ (+ ?x952 (- 43 ?x1633)) 24003)) (- 1) 0))))
 (let ((?x617 (ite (>= ?x941 (+ ?x1820 ?x625)) 43 (ite (>= ?x941 (+ ?x1447 ?x781)) 42 ?x2001))))
 (let ((?x2546 (ite (> 22803 (+ (+ ?x952 (- 44 ?x1633)) 24003)) 1 (ite (<= 25203 (+ (+ ?x952 (- 44 ?x1633)) 24003)) (- 1) 0))))
 (let ((?x2585 (ite (> 22803 (+ (+ ?x952 (- 45 ?x1633)) 24003)) 1 (ite (<= 25203 (+ (+ ?x952 (- 45 ?x1633)) 24003)) (- 1) 0))))
 (let ((?x2594 (ite (>= ?x941 (+ ?x2581 ?x2585)) 45 (ite (>= ?x941 (+ ?x2556 ?x2546)) 44 ?x617))))
 (let ((?x2511 (ite (> 22803 (+ (+ ?x952 (- 46 ?x1633)) 24003)) 1 (ite (<= 25203 (+ (+ ?x952 (- 46 ?x1633)) 24003)) (- 1) 0))))
 (let ((?x2653 (ite (> 22803 (+ (+ ?x952 (- 47 ?x1633)) 24003)) 1 (ite (<= 25203 (+ (+ ?x952 (- 47 ?x1633)) 24003)) (- 1) 0))))
 (let ((?x2672 (ite (>= ?x941 (+ ?x2663 ?x2653)) 47 (ite (>= ?x941 (+ ?x2509 ?x2511)) 46 ?x2594))))
 (let ((?x2701 (+ ?x952 (- ?x2672 ?x1633))))
 (let ((?x2700 (+ ?x2701 24003)))
 (let ((?x2685 (+ (select ?x202 ?x2672) (ite (> 22803 ?x2700) 1 (ite (<= 25203 ?x2700) (- 1) 0)))))
 (let ((?x2689 (- ?x941 ?x2685)))
 (let ((?x1857 (ite (or (= 22802 ?x2700) (= 25202 ?x2700)) 28 (select ?x108 ?x2672))))
 (let (($x2186 (= (ite (= 1 (ite (>= ?x2689 ?x1857) 1 0)) (- ?x2689 ?x1857) ?x2689) (ite (= 1 (ite (>= ?x2820 ?x3067) 1 0)) (- ?x2820 ?x3067) ?x2820))))
 (let (($x646 (= (+ ?x2701 (ite (>= ?x2689 ?x1857) 1 0)) (+ ?x1835 (ite (>= ?x2820 ?x3067) 1 0)))))
 (not (and $x646 $x2186))))))))))))))))))))))))))))))))))))))))))))))))))))))))))))))))))))))))))))))))))))))))))))))))))))))))))))))))))))))))))))))))))))))))))))))))))))))))))))))))))))))))))))))))))))))))))))))))))))))))))))))))))))))))))))))))))))))))))))))))))))))))))))))))))))))))))))))))))))))))))))
(assert
 (let ((?x1405 (- (+ (* 2020 12) 2) 24003)))
(let (($x1555 (= x_months ?x1405)))
(and $x1555 (= 28 x_beta)))))
(check-sat)
